StudentsNr = 5;
InstructorsNr = 3;
DaysNr = 1;
SlotsPerDay = 10;
AvailabilitySlotsLenght = 2;
RoomNr = 1;
ProgrammNr = 2;
DegreeNr = 1;
RolesNr = 2;
CoursesNr = 4;
InstructorsProgramm = [{1}, {2}, {2}];
InstructorRolesPerProgramm = [|{}, {1}|{2}, {3}|];
InstructorsAvailability = [|0, 1, 1, 1, 0, |0, 0, 0, 1, 1, |0, 0, 0, 0, 1|];
StudentsProgramm = [1, 2, 2, 1, 1];
StudentsDegree = [1, 1, 1, 1, 1];
StudentsSupervisorId = [1, 3, 2, 1, 1];
StudentsCourseIds = [{3, 4}, {3, 4}, {1, 4}, {1, 2}, {1, 4}];
StudentsAvailability = [|1, 1, 0, 1, 1, |0, 1, 1, 1, 1, |1, 1, 0, 1, 1, |0, 0, 1, 1, 1, |0, 1, 1, 1, 1|];
TheoryticalMinCard = [1, 1, 2, 1, 0];
CoursesInstructorIds = [{1}, {2}, {3}, {1}];
RolesDemands = [0, 1];
RolesContinuity = [];
ExamLen = [1, 1, 1, 1, 1];
LunchTsMinLen = 0;
LunchStarts = [5..6];
SupervisorAvailable = 5;
OptimalLunchLenght = [2, 2];
OptimalStartTs = [1, 2];
OptimalFinishTs = [1, 9];
MinimizeRooms = 400;
RolesSoftContinuity = [|1, 2|0, 2|];
SameDegreeInRoom = 10;
Mergeability = 1;
